\ Generated by MPModelProtoExporter
\   Name             : 
\   Format           : Free
\   Constraints      : 292
\   Variables        : 37
\     Binary         : 0
\     Integer        : 0
\     Continuous     : 37
Maximize
 Obj: -1 _1 -1 _2 -1 _3 -1 _4 -1 _5 -1 _6 -1 _7 -3 _8 -3 _9 +1 _0CN1_1 +1 _0CN2_2 +1 _0IT1_3 +1 _0IT2_4 +1 _0KT1_5 +1 _0KT2_6 +1 _0LT_7 +1 _0MC1_1_8 +1 _0MC2_2_9 +1 _0MI_IDX1_3_8 +1 _0MI_IDX2_4_9 +1 _0ML_7_8_9 +1 _0T1_5_8 +1 _0T2_6_9 
Subject to
 Mono_Ineq.__H(0CN1_1)____H(0CN1): -1 _0CN1 +1 _0CN1_1  >= 0
 Mono_Ineq.__H(0CN1_1)____H(1): -1 _1 +1 _0CN1_1  >= 0
 Additivity_Ineq.__H(0CN1_1)____H(0CN1)___H(1): -1 _1 -1 _0CN1 +1 _0CN1_1  <= 0
 Mono_Ineq.__H(0CN2_2)____H(0CN2): -1 _0CN2 +1 _0CN2_2  >= 0
 Mono_Ineq.__H(0CN2_2)____H(2): -1 _2 +1 _0CN2_2  >= 0
 Additivity_Ineq.__H(0CN2_2)____H(0CN2)___H(2): -1 _2 -1 _0CN2 +1 _0CN2_2  <= 0
 Mono_Ineq.__H(0IT1_3)____H(0IT1): -1 _0IT1 +1 _0IT1_3  >= 0
 Mono_Ineq.__H(0IT1_3)____H(3): -1 _3 +1 _0IT1_3  >= 0
 Additivity_Ineq.__H(0IT1_3)____H(0IT1)___H(3): -1 _3 -1 _0IT1 +1 _0IT1_3  <= 0
 Mono_Ineq.__H(0IT2_4)____H(0IT2): -1 _0IT2 +1 _0IT2_4  >= 0
 Mono_Ineq.__H(0IT2_4)____H(4): -1 _4 +1 _0IT2_4  >= 0
 Additivity_Ineq.__H(0IT2_4)____H(0IT2)___H(4): -1 _4 -1 _0IT2 +1 _0IT2_4  <= 0
 Mono_Ineq.__H(0KT1_5)____H(0KT1): -1 _0KT1 +1 _0KT1_5  >= 0
 Mono_Ineq.__H(0KT1_5)____H(5): -1 _5 +1 _0KT1_5  >= 0
 Additivity_Ineq.__H(0KT1_5)____H(0KT1)___H(5): -1 _5 -1 _0KT1 +1 _0KT1_5  <= 0
 Mono_Ineq.__H(0KT2_6)____H(0KT2): -1 _0KT2 +1 _0KT2_6  >= 0
 Mono_Ineq.__H(0KT2_6)____H(6): -1 _6 +1 _0KT2_6  >= 0
 Additivity_Ineq.__H(0KT2_6)____H(0KT2)___H(6): -1 _6 -1 _0KT2 +1 _0KT2_6  <= 0
 Mono_Ineq.__H(0LT_7)____H(0LT): -1 _0LT +1 _0LT_7  >= 0
 Mono_Ineq.__H(0LT_7)____H(7): -1 _7 +1 _0LT_7  >= 0
 Additivity_Ineq.__H(0LT_7)____H(0LT)___H(7): -1 _7 -1 _0LT +1 _0LT_7  <= 0
 Mono_Ineq.__H(0MC1_1_8)____H(0MC1): -1 _0MC1 +1 _0MC1_1_8  >= 0
 Mono_Ineq.__H(0MC1_1_8)____H(8): -1 _8 +1 _0MC1_1_8  >= 0
 Mono_Ineq.__H(0MC1_1_8)____H(1): -1 _1 +1 _0MC1_1_8  >= 0
 Additivity_Ineq.__H(0MC1_1_8)____H(0MC1)___H(8)___H(1): -1 _1 -1 _8 -1 _0MC1 +1 _0MC1_1_8  <= 0
 Mono_Ineq.__H(0MC2_2_9)____H(0MC2): -1 _0MC2 +1 _0MC2_2_9  >= 0
 Mono_Ineq.__H(0MC2_2_9)____H(9): -1 _9 +1 _0MC2_2_9  >= 0
 Mono_Ineq.__H(0MC2_2_9)____H(2): -1 _2 +1 _0MC2_2_9  >= 0
 Additivity_Ineq.__H(0MC2_2_9)____H(0MC2)___H(9)___H(2): -1 _2 -1 _9 -1 _0MC2 +1 _0MC2_2_9  <= 0
 Mono_Ineq.__H(0MI_IDX1_3_8)____H(0MI_IDX1): -1 _0MI_IDX1 +1 _0MI_IDX1_3_8  >= 0
 Mono_Ineq.__H(0MI_IDX1_3_8)____H(8): -1 _8 +1 _0MI_IDX1_3_8  >= 0
 Mono_Ineq.__H(0MI_IDX1_3_8)____H(3): -1 _3 +1 _0MI_IDX1_3_8  >= 0
 Additivity_Ineq.__H(0MI_IDX1_3_8)____H(0MI_IDX1)___H(8)___H(3): -1 _3 -1 _8 -1 _0MI_IDX1 +1 _0MI_IDX1_3_8  <= 0
 Mono_Ineq.__H(0MI_IDX2_4_9)____H(0MI_IDX2): -1 _0MI_IDX2 +1 _0MI_IDX2_4_9  >= 0
 Mono_Ineq.__H(0MI_IDX2_4_9)____H(9): -1 _9 +1 _0MI_IDX2_4_9  >= 0
 Mono_Ineq.__H(0MI_IDX2_4_9)____H(4): -1 _4 +1 _0MI_IDX2_4_9  >= 0
 Additivity_Ineq.__H(0MI_IDX2_4_9)____H(0MI_IDX2)___H(9)___H(4): -1 _4 -1 _9 -1 _0MI_IDX2 +1 _0MI_IDX2_4_9  <= 0
 Mono_Ineq.__H(0ML_7_8_9)____H(0ML): -1 _0ML +1 _0ML_7_8_9  >= 0
 Mono_Ineq.__H(0ML_7_8_9)____H(8): -1 _8 +1 _0ML_7_8_9  >= 0
 Mono_Ineq.__H(0ML_7_8_9)____H(9): -1 _9 +1 _0ML_7_8_9  >= 0
 Mono_Ineq.__H(0ML_7_8_9)____H(7): -1 _7 +1 _0ML_7_8_9  >= 0
 Additivity_Ineq.__H(0ML_7_8_9)____H(0ML)___H(8)___H(9)___H(7): -1 _7 -1 _8 -1 _9 -1 _0ML +1 _0ML_7_8_9  <= 0
 Mono_Ineq.__H(0T1_5_8)____H(0T1): -1 _0T1 +1 _0T1_5_8  >= 0
 Mono_Ineq.__H(0T1_5_8)____H(5): -1 _5 +1 _0T1_5_8  >= 0
 Mono_Ineq.__H(0T1_5_8)____H(8): -1 _8 +1 _0T1_5_8  >= 0
 Additivity_Ineq.__H(0T1_5_8)____H(0T1)___H(5)___H(8): -1 _5 -1 _8 -1 _0T1 +1 _0T1_5_8  <= 0
 Mono_Ineq.__H(0T2_6_9)____H(0T2): -1 _0T2 +1 _0T2_6_9  >= 0
 Mono_Ineq.__H(0T2_6_9)____H(6): -1 _6 +1 _0T2_6_9  >= 0
 Mono_Ineq.__H(0T2_6_9)____H(9): -1 _9 +1 _0T2_6_9  >= 0
 Additivity_Ineq.__H(0T2_6_9)____H(0T2)___H(6)___H(9): -1 _6 -1 _9 -1 _0T2 +1 _0T2_6_9  <= 0
 Statistics_Ineq._1__1___h(0CN1_1)___0___h(1)____1___log2(234997.0)_|_1_|_CN1.ID: +1 _0CN1_1  <= 17.8423
 Statistics_Ineq._2__2___h(0CN1_1)___1___h(1)____2___log2(484.76489146801873)_|_2_|_CN1.ID: -1 _1 +2 _0CN1_1  <= 17.8423
 Statistics_Ineq._3__3___h(0CN1_1)___2___h(1)____3___log2(61.709795330658544)_|_3_|_CN1.ID: -2 _1 +3 _0CN1_1  <= 17.8423
 Statistics_Ineq._4__4___h(0CN1_1)___3___h(1)____4___log2(22.017377034243175)_|_4_|_CN1.ID: -3 _1 +4 _0CN1_1  <= 17.8423
 Statistics_Ineq._5__5___h(0CN1_1)___4___h(1)____5___log2(11.863489865870786)_|_5_|_CN1.ID: -4 _1 +5 _0CN1_1  <= 17.8423
 Statistics_Ineq._6__6___h(0CN1_1)___5___h(1)____6___log2(7.855558244368031)_|_6_|_CN1.ID: -5 _1 +6 _0CN1_1  <= 17.8423
 Statistics_Ineq._7__7___h(0CN1_1)___6___h(1)____7___log2(5.851869288664952)_|_7_|_CN1.ID: -6 _1 +7 _0CN1_1  <= 17.8423
 Statistics_Ineq._8__8___h(0CN1_1)___7___h(1)____8___log2(4.692267792256019)_|_8_|_CN1.ID: -7 _1 +8 _0CN1_1  <= 17.8423
 Statistics_Ineq._9__9___h(0CN1_1)___8___h(1)____9___log2(3.95170668822707)_|_9_|_CN1.ID: -8 _1 +9 _0CN1_1  <= 17.8423
 Statistics_Ineq._10__10___h(0CN1_1)___9___h(1)____10___log2(3.4443417173490185)_|_10_|_CN1.ID: -9 _1 +10 _0CN1_1  <= 17.8423
 Statistics_Ineq._11__h(0CN1_1)___h(1)____log2(1.0)_|_inf_|_CN1.ID: -1 _1 +1 _0CN1_1  <= 0
 Statistics_Ineq._12__1___h(0CN2_2)___0___h(2)____1___log2(234997.0)_|_1_|_CN2.ID: +1 _0CN2_2  <= 17.8423
 Statistics_Ineq._13__2___h(0CN2_2)___1___h(2)____2___log2(484.76489146801873)_|_2_|_CN2.ID: -1 _2 +2 _0CN2_2  <= 17.8423
 Statistics_Ineq._14__3___h(0CN2_2)___2___h(2)____3___log2(61.709795330658544)_|_3_|_CN2.ID: -2 _2 +3 _0CN2_2  <= 17.8423
 Statistics_Ineq._15__4___h(0CN2_2)___3___h(2)____4___log2(22.017377034243175)_|_4_|_CN2.ID: -3 _2 +4 _0CN2_2  <= 17.8423
 Statistics_Ineq._16__5___h(0CN2_2)___4___h(2)____5___log2(11.863489865870786)_|_5_|_CN2.ID: -4 _2 +5 _0CN2_2  <= 17.8423
 Statistics_Ineq._17__6___h(0CN2_2)___5___h(2)____6___log2(7.855558244368031)_|_6_|_CN2.ID: -5 _2 +6 _0CN2_2  <= 17.8423
 Statistics_Ineq._18__7___h(0CN2_2)___6___h(2)____7___log2(5.851869288664952)_|_7_|_CN2.ID: -6 _2 +7 _0CN2_2  <= 17.8423
 Statistics_Ineq._19__8___h(0CN2_2)___7___h(2)____8___log2(4.692267792256019)_|_8_|_CN2.ID: -7 _2 +8 _0CN2_2  <= 17.8423
 Statistics_Ineq._20__9___h(0CN2_2)___8___h(2)____9___log2(3.95170668822707)_|_9_|_CN2.ID: -8 _2 +9 _0CN2_2  <= 17.8423
 Statistics_Ineq._21__10___h(0CN2_2)___9___h(2)____10___log2(3.4443417173490185)_|_10_|_CN2.ID: -9 _2 +10 _0CN2_2  <= 17.8423
 Statistics_Ineq._22__h(0CN2_2)___h(2)____log2(1.0)_|_inf_|_CN2.ID: -1 _2 +1 _0CN2_2  <= 0
 Statistics_Ineq._23__1___h(0IT1_3)___0___h(3)____1___log2(8.0)_|_1_|_IT1.ID: +1 _0IT1_3  <= 3
 Statistics_Ineq._24__2___h(0IT1_3)___1___h(3)____2___log2(2.8284271247461903)_|_2_|_IT1.ID: -1 _3 +2 _0IT1_3  <= 3
 Statistics_Ineq._25__3___h(0IT1_3)___2___h(3)____3___log2(2.0)_|_3_|_IT1.ID: -2 _3 +3 _0IT1_3  <= 3
 Statistics_Ineq._26__4___h(0IT1_3)___3___h(3)____4___log2(1.681792830507429)_|_4_|_IT1.ID: -3 _3 +4 _0IT1_3  <= 3
 Statistics_Ineq._27__5___h(0IT1_3)___4___h(3)____5___log2(1.5157165665103982)_|_5_|_IT1.ID: -4 _3 +5 _0IT1_3  <= 3
 Statistics_Ineq._28__6___h(0IT1_3)___5___h(3)____6___log2(1.414213562373095)_|_6_|_IT1.ID: -5 _3 +6 _0IT1_3  <= 3
 Statistics_Ineq._29__7___h(0IT1_3)___6___h(3)____7___log2(1.3459001926323562)_|_7_|_IT1.ID: -6 _3 +7 _0IT1_3  <= 3
 Statistics_Ineq._30__8___h(0IT1_3)___7___h(3)____8___log2(1.2968395546510096)_|_8_|_IT1.ID: -7 _3 +8 _0IT1_3  <= 3
 Statistics_Ineq._31__9___h(0IT1_3)___8___h(3)____9___log2(1.2599210498948732)_|_9_|_IT1.ID: -8 _3 +9 _0IT1_3  <= 3
 Statistics_Ineq._32__10___h(0IT1_3)___9___h(3)____10___log2(1.2311444133449163)_|_10_|_IT1.ID: -9 _3 +10 _0IT1_3  <= 3
 Statistics_Ineq._33__h(0IT1_3)___h(3)____log2(1.0)_|_inf_|_IT1.ID: -1 _3 +1 _0IT1_3  <= 0
 Statistics_Ineq._34__1___h(0IT2_4)___0___h(4)____1___log2(8.0)_|_1_|_IT2.ID: +1 _0IT2_4  <= 3
 Statistics_Ineq._35__2___h(0IT2_4)___1___h(4)____2___log2(2.8284271247461903)_|_2_|_IT2.ID: -1 _4 +2 _0IT2_4  <= 3
 Statistics_Ineq._36__3___h(0IT2_4)___2___h(4)____3___log2(2.0)_|_3_|_IT2.ID: -2 _4 +3 _0IT2_4  <= 3
 Statistics_Ineq._37__4___h(0IT2_4)___3___h(4)____4___log2(1.681792830507429)_|_4_|_IT2.ID: -3 _4 +4 _0IT2_4  <= 3
 Statistics_Ineq._38__5___h(0IT2_4)___4___h(4)____5___log2(1.5157165665103982)_|_5_|_IT2.ID: -4 _4 +5 _0IT2_4  <= 3
 Statistics_Ineq._39__6___h(0IT2_4)___5___h(4)____6___log2(1.414213562373095)_|_6_|_IT2.ID: -5 _4 +6 _0IT2_4  <= 3
 Statistics_Ineq._40__7___h(0IT2_4)___6___h(4)____7___log2(1.3459001926323562)_|_7_|_IT2.ID: -6 _4 +7 _0IT2_4  <= 3
 Statistics_Ineq._41__8___h(0IT2_4)___7___h(4)____8___log2(1.2968395546510096)_|_8_|_IT2.ID: -7 _4 +8 _0IT2_4  <= 3
 Statistics_Ineq._42__9___h(0IT2_4)___8___h(4)____9___log2(1.2599210498948732)_|_9_|_IT2.ID: -8 _4 +9 _0IT2_4  <= 3
 Statistics_Ineq._43__10___h(0IT2_4)___9___h(4)____10___log2(1.2311444133449163)_|_10_|_IT2.ID: -9 _4 +10 _0IT2_4  <= 3
 Statistics_Ineq._44__h(0IT2_4)___h(4)____log2(1.0)_|_inf_|_IT2.ID: -1 _4 +1 _0IT2_4  <= 0
 Statistics_Ineq._45__1___h(0KT1_5)___0___h(5)____1___log2(7.0)_|_1_|_KT1.ID: +1 _0KT1_5  <= 2.80735
 Statistics_Ineq._46__2___h(0KT1_5)___1___h(5)____2___log2(2.6457513110645907)_|_2_|_KT1.ID: -1 _5 +2 _0KT1_5  <= 2.80735
 Statistics_Ineq._47__3___h(0KT1_5)___2___h(5)____3___log2(1.912931182772389)_|_3_|_KT1.ID: -2 _5 +3 _0KT1_5  <= 2.80735
 Statistics_Ineq._48__4___h(0KT1_5)___3___h(5)____4___log2(1.6265765616977856)_|_4_|_KT1.ID: -3 _5 +4 _0KT1_5  <= 2.80735
 Statistics_Ineq._49__5___h(0KT1_5)___4___h(5)____5___log2(1.4757731615945522)_|_5_|_KT1.ID: -4 _5 +5 _0KT1_5  <= 2.80735
 Statistics_Ineq._50__6___h(0KT1_5)___5___h(5)____6___log2(1.3830875542684884)_|_6_|_KT1.ID: -5 _5 +6 _0KT1_5  <= 2.80735
 Statistics_Ineq._51__7___h(0KT1_5)___6___h(5)____7___log2(1.3204692477561237)_|_7_|_KT1.ID: -6 _5 +7 _0KT1_5  <= 2.80735
 Statistics_Ineq._52__8___h(0KT1_5)___7___h(5)____8___log2(1.2753731068584542)_|_8_|_KT1.ID: -7 _5 +8 _0KT1_5  <= 2.80735
 Statistics_Ineq._53__9___h(0KT1_5)___8___h(5)____9___log2(1.2413658170152087)_|_9_|_KT1.ID: -8 _5 +9 _0KT1_5  <= 2.80735
 Statistics_Ineq._54__10___h(0KT1_5)___9___h(5)____10___log2(1.214814044039067)_|_10_|_KT1.ID: -9 _5 +10 _0KT1_5  <= 2.80735
 Statistics_Ineq._55__h(0KT1_5)___h(5)____log2(1.0)_|_inf_|_KT1.ID: -1 _5 +1 _0KT1_5  <= 0
 Statistics_Ineq._56__1___h(0KT2_6)___0___h(6)____1___log2(7.0)_|_1_|_KT2.ID: +1 _0KT2_6  <= 2.80735
 Statistics_Ineq._57__2___h(0KT2_6)___1___h(6)____2___log2(2.6457513110645907)_|_2_|_KT2.ID: -1 _6 +2 _0KT2_6  <= 2.80735
 Statistics_Ineq._58__3___h(0KT2_6)___2___h(6)____3___log2(1.912931182772389)_|_3_|_KT2.ID: -2 _6 +3 _0KT2_6  <= 2.80735
 Statistics_Ineq._59__4___h(0KT2_6)___3___h(6)____4___log2(1.6265765616977856)_|_4_|_KT2.ID: -3 _6 +4 _0KT2_6  <= 2.80735
 Statistics_Ineq._60__5___h(0KT2_6)___4___h(6)____5___log2(1.4757731615945522)_|_5_|_KT2.ID: -4 _6 +5 _0KT2_6  <= 2.80735
 Statistics_Ineq._61__6___h(0KT2_6)___5___h(6)____6___log2(1.3830875542684884)_|_6_|_KT2.ID: -5 _6 +6 _0KT2_6  <= 2.80735
 Statistics_Ineq._62__7___h(0KT2_6)___6___h(6)____7___log2(1.3204692477561237)_|_7_|_KT2.ID: -6 _6 +7 _0KT2_6  <= 2.80735
 Statistics_Ineq._63__8___h(0KT2_6)___7___h(6)____8___log2(1.2753731068584542)_|_8_|_KT2.ID: -7 _6 +8 _0KT2_6  <= 2.80735
 Statistics_Ineq._64__9___h(0KT2_6)___8___h(6)____9___log2(1.2413658170152087)_|_9_|_KT2.ID: -8 _6 +9 _0KT2_6  <= 2.80735
 Statistics_Ineq._65__10___h(0KT2_6)___9___h(6)____10___log2(1.214814044039067)_|_10_|_KT2.ID: -9 _6 +10 _0KT2_6  <= 2.80735
 Statistics_Ineq._66__h(0KT2_6)___h(6)____log2(1.0)_|_inf_|_KT2.ID: -1 _6 +1 _0KT2_6  <= 0
 Statistics_Ineq._67__1___h(0LT_7)___0___h(7)____1___log2(16.0)_|_1_|_LT.ID: +1 _0LT_7  <= 4
 Statistics_Ineq._68__2___h(0LT_7)___1___h(7)____2___log2(4.0)_|_2_|_LT.ID: -1 _7 +2 _0LT_7  <= 4
 Statistics_Ineq._69__3___h(0LT_7)___2___h(7)____3___log2(2.5198420997897464)_|_3_|_LT.ID: -2 _7 +3 _0LT_7  <= 4
 Statistics_Ineq._70__4___h(0LT_7)___3___h(7)____4___log2(2.0)_|_4_|_LT.ID: -3 _7 +4 _0LT_7  <= 4
 Statistics_Ineq._71__5___h(0LT_7)___4___h(7)____5___log2(1.7411011265922482)_|_5_|_LT.ID: -4 _7 +5 _0LT_7  <= 4
 Statistics_Ineq._72__6___h(0LT_7)___5___h(7)____6___log2(1.5874010519681994)_|_6_|_LT.ID: -5 _7 +6 _0LT_7  <= 4
 Statistics_Ineq._73__7___h(0LT_7)___6___h(7)____7___log2(1.4859942891369484)_|_7_|_LT.ID: -6 _7 +7 _0LT_7  <= 4
 Statistics_Ineq._74__8___h(0LT_7)___7___h(7)____8___log2(1.4142135623730951)_|_8_|_LT.ID: -7 _7 +8 _0LT_7  <= 4
 Statistics_Ineq._75__9___h(0LT_7)___8___h(7)____9___log2(1.360790000174377)_|_9_|_LT.ID: -8 _7 +9 _0LT_7  <= 4
 Statistics_Ineq._76__10___h(0LT_7)___9___h(7)____10___log2(1.3195079107728942)_|_10_|_LT.ID: -9 _7 +10 _0LT_7  <= 4
 Statistics_Ineq._77__h(0LT_7)___h(7)____log2(1.0)_|_inf_|_LT.ID: -1 _7 +1 _0LT_7  <= 0
 Statistics_Ineq._78__1___h(0MC1_1_8)___0___h(8)____1___log2(201301.0)_|_1_|_MC1.MOVIE_ID: +1 _0MC1_1_8  <= 17.619
 Statistics_Ineq._79__2___h(0MC1_1_8)___1___h(8)____2___log2(2344.7390046655514)_|_2_|_MC1.MOVIE_ID: -1 _8 +2 _0MC1_1_8  <= 22.3904
 Statistics_Ineq._80__3___h(0MC1_1_8)___2___h(8)____3___log2(553.833043000911)_|_3_|_MC1.MOVIE_ID: -2 _8 +3 _0MC1_1_8  <= 27.3399
 Statistics_Ineq._81__4___h(0MC1_1_8)___3___h(8)____4___log2(278.3680850653061)_|_4_|_MC1.MOVIE_ID: -3 _8 +4 _0MC1_1_8  <= 32.4834
 Statistics_Ineq._82__5___h(0MC1_1_8)___4___h(8)____5___log2(189.35629510011285)_|_5_|_MC1.MOVIE_ID: -4 _8 +5 _0MC1_1_8  <= 37.8248
 Statistics_Ineq._83__6___h(0MC1_1_8)___5___h(8)____6___log2(149.7489211724434)_|_6_|_MC1.MOVIE_ID: -5 _8 +6 _0MC1_1_8  <= 43.3584
 Statistics_Ineq._84__7___h(0MC1_1_8)___6___h(8)____7___log2(128.9230645787127)_|_7_|_MC1.MOVIE_ID: -6 _8 +7 _0MC1_1_8  <= 49.0726
 Statistics_Ineq._85__8___h(0MC1_1_8)___7___h(8)____8___log2(116.88397455171383)_|_8_|_MC1.MOVIE_ID: -7 _8 +8 _0MC1_1_8  <= 54.9515
 Statistics_Ineq._86__9___h(0MC1_1_8)___8___h(8)____9___log2(109.51971048088288)_|_9_|_MC1.MOVIE_ID: -8 _8 +9 _0MC1_1_8  <= 60.9754
 Statistics_Ineq._87__10___h(0MC1_1_8)___9___h(8)____10___log2(104.84804429227518)_|_10_|_MC1.MOVIE_ID: -9 _8 +10 _0MC1_1_8  <= 67.1216
 Statistics_Ineq._88__h(0MC1_1_8)___h(8)____log2(94.0)_|_inf_|_MC1.MOVIE_ID: -1 _8 +1 _0MC1_1_8  <= 6.55459
 Statistics_Ineq._89__1___h(0MC1_1_8)___0___h(1)____1___log2(2609129.0)_|_1_|_MC1.COMPANY_ID: +1 _0MC1_1_8  <= 21.3151
 Statistics_Ineq._90__2___h(0MC1_1_8)___1___h(1)____2___log2(106883.15010795668)_|_2_|_MC1.COMPANY_ID: -1 _1 +2 _0MC1_1_8  <= 33.4113
 Statistics_Ineq._91__3___h(0MC1_1_8)___2___h(1)____3___log2(75788.07259073698)_|_3_|_MC1.COMPANY_ID: -2 _1 +3 _0MC1_1_8  <= 48.629
 Statistics_Ineq._92__4___h(0MC1_1_8)___3___h(1)____4___log2(68743.68174597787)_|_4_|_MC1.COMPANY_ID: -3 _1 +4 _0MC1_1_8  <= 64.2758
 Statistics_Ineq._93__5___h(0MC1_1_8)___4___h(1)____5___log2(65836.53118034896)_|_5_|_MC1.COMPANY_ID: -4 _1 +5 _0MC1_1_8  <= 80.033
 Statistics_Ineq._94__6___h(0MC1_1_8)___5___h(1)____6___log2(64352.605232193164)_|_6_|_MC1.COMPANY_ID: -5 _1 +6 _0MC1_1_8  <= 95.8423
 Statistics_Ineq._95__7___h(0MC1_1_8)___6___h(1)____7___log2(63514.550164509055)_|_7_|_MC1.COMPANY_ID: -6 _1 +7 _0MC1_1_8  <= 111.684
 Statistics_Ineq._96__8___h(0MC1_1_8)___7___h(1)____8___log2(63012.11279193569)_|_8_|_MC1.COMPANY_ID: -7 _1 +8 _0MC1_1_8  <= 127.547
 Statistics_Ineq._97__9___h(0MC1_1_8)___8___h(1)____9___log2(62698.45498555785)_|_9_|_MC1.COMPANY_ID: -8 _1 +9 _0MC1_1_8  <= 143.425
 Statistics_Ineq._98__10___h(0MC1_1_8)___9___h(1)____10___log2(62496.76791365353)_|_10_|_MC1.COMPANY_ID: -9 _1 +10 _0MC1_1_8  <= 159.315
 Statistics_Ineq._99__h(0MC1_1_8)___h(1)____log2(62075.0)_|_inf_|_MC1.COMPANY_ID: -1 _1 +1 _0MC1_1_8  <= 15.9217
 Statistics_Ineq._100__1___h(0MC2_2_9)___0___h(9)____1___log2(309509.0)_|_1_|_MC2.MOVIE_ID: +1 _0MC2_2_9  <= 18.2396
 Statistics_Ineq._101__2___h(0MC2_2_9)___1___h(9)____2___log2(2634.885766024782)_|_2_|_MC2.MOVIE_ID: -1 _9 +2 _0MC2_2_9  <= 22.727
 Statistics_Ineq._102__3___h(0MC2_2_9)___2___h(9)____3___log2(574.2628436410201)_|_3_|_MC2.MOVIE_ID: -2 _9 +3 _0MC2_2_9  <= 27.4967
 Statistics_Ineq._103__4___h(0MC2_2_9)___3___h(9)____4___log2(281.4017046288758)_|_4_|_MC2.MOVIE_ID: -3 _9 +4 _0MC2_2_9  <= 32.5459
 Statistics_Ineq._104__5___h(0MC2_2_9)___4___h(9)____5___log2(189.9235249678221)_|_5_|_MC2.MOVIE_ID: -4 _9 +5 _0MC2_2_9  <= 37.8464
 Statistics_Ineq._105__6___h(0MC2_2_9)___5___h(9)____6___log2(149.86179149210076)_|_6_|_MC2.MOVIE_ID: -5 _9 +6 _0MC2_2_9  <= 43.3649
 Statistics_Ineq._106__7___h(0MC2_2_9)___6___h(9)____7___log2(128.94541316698752)_|_7_|_MC2.MOVIE_ID: -6 _9 +7 _0MC2_2_9  <= 49.0743
 Statistics_Ineq._107__8___h(0MC2_2_9)___7___h(9)____8___log2(116.8882540209639)_|_8_|_MC2.MOVIE_ID: -7 _9 +8 _0MC2_2_9  <= 54.9519
 Statistics_Ineq._108__9___h(0MC2_2_9)___8___h(9)____9___log2(109.5204952480469)_|_9_|_MC2.MOVIE_ID: -8 _9 +9 _0MC2_2_9  <= 60.9755
 Statistics_Ineq._109__10___h(0MC2_2_9)___9___h(9)____10___log2(104.8481822090158)_|_10_|_MC2.MOVIE_ID: -9 _9 +10 _0MC2_2_9  <= 67.1216
 Statistics_Ineq._110__h(0MC2_2_9)___h(9)____log2(94.0)_|_inf_|_MC2.MOVIE_ID: -1 _9 +1 _0MC2_2_9  <= 6.55459
 Statistics_Ineq._111__1___h(0MC2_2_9)___0___h(2)____1___log2(2609129.0)_|_1_|_MC2.COMPANY_ID: +1 _0MC2_2_9  <= 21.3151
 Statistics_Ineq._112__2___h(0MC2_2_9)___1___h(2)____2___log2(106883.15010795668)_|_2_|_MC2.COMPANY_ID: -1 _2 +2 _0MC2_2_9  <= 33.4113
 Statistics_Ineq._113__3___h(0MC2_2_9)___2___h(2)____3___log2(75788.07259073698)_|_3_|_MC2.COMPANY_ID: -2 _2 +3 _0MC2_2_9  <= 48.629
 Statistics_Ineq._114__4___h(0MC2_2_9)___3___h(2)____4___log2(68743.68174597787)_|_4_|_MC2.COMPANY_ID: -3 _2 +4 _0MC2_2_9  <= 64.2758
 Statistics_Ineq._115__5___h(0MC2_2_9)___4___h(2)____5___log2(65836.53118034896)_|_5_|_MC2.COMPANY_ID: -4 _2 +5 _0MC2_2_9  <= 80.033
 Statistics_Ineq._116__6___h(0MC2_2_9)___5___h(2)____6___log2(64352.605232193164)_|_6_|_MC2.COMPANY_ID: -5 _2 +6 _0MC2_2_9  <= 95.8423
 Statistics_Ineq._117__7___h(0MC2_2_9)___6___h(2)____7___log2(63514.550164509055)_|_7_|_MC2.COMPANY_ID: -6 _2 +7 _0MC2_2_9  <= 111.684
 Statistics_Ineq._118__8___h(0MC2_2_9)___7___h(2)____8___log2(63012.11279193569)_|_8_|_MC2.COMPANY_ID: -7 _2 +8 _0MC2_2_9  <= 127.547
 Statistics_Ineq._119__9___h(0MC2_2_9)___8___h(2)____9___log2(62698.45498555785)_|_9_|_MC2.COMPANY_ID: -8 _2 +9 _0MC2_2_9  <= 143.425
 Statistics_Ineq._120__10___h(0MC2_2_9)___9___h(2)____10___log2(62496.76791365353)_|_10_|_MC2.COMPANY_ID: -9 _2 +10 _0MC2_2_9  <= 159.315
 Statistics_Ineq._121__h(0MC2_2_9)___h(2)____log2(62075.0)_|_inf_|_MC2.COMPANY_ID: -1 _2 +1 _0MC2_2_9  <= 15.9217
 Statistics_Ineq._122__1___h(0MI_IDX1_3_8)___0___h(8)____1___log2(24836.0)_|_1_|_MI_IDX1.MOVIE_ID: +1 _0MI_IDX1_3_8  <= 14.6001
 Statistics_Ineq._123__2___h(0MI_IDX1_3_8)___1___h(8)____2___log2(274.85996434548264)_|_2_|_MI_IDX1.MOVIE_ID: -1 _8 +2 _0MI_IDX1_3_8  <= 16.2051
 Statistics_Ineq._124__3___h(0MI_IDX1_3_8)___2___h(8)____3___log2(61.34056572977654)_|_3_|_MI_IDX1.MOVIE_ID: -2 _8 +3 _0MI_IDX1_3_8  <= 17.8163
 Statistics_Ineq._125__4___h(0MI_IDX1_3_8)___3___h(8)____4___log2(29.018136654695535)_|_4_|_MI_IDX1.MOVIE_ID: -3 _8 +4 _0MI_IDX1_3_8  <= 19.4355
 Statistics_Ineq._126__5___h(0MI_IDX1_3_8)___4___h(8)____5___log2(18.545394689249)_|_5_|_MI_IDX1.MOVIE_ID: -4 _8 +5 _0MI_IDX1_3_8  <= 21.0649
 Statistics_Ineq._127__6___h(0MI_IDX1_3_8)___5___h(8)____6___log2(13.780156702774821)_|_6_|_MI_IDX1.MOVIE_ID: -5 _8 +6 _0MI_IDX1_3_8  <= 22.7071
 Statistics_Ineq._128__7___h(0MI_IDX1_3_8)___6___h(8)____7___log2(11.163479169084365)_|_7_|_MI_IDX1.MOVIE_ID: -6 _8 +7 _0MI_IDX1_3_8  <= 24.365
 Statistics_Ineq._129__8___h(0MI_IDX1_3_8)___7___h(8)____8___log2(9.54816671926457)_|_8_|_MI_IDX1.MOVIE_ID: -7 _8 +8 _0MI_IDX1_3_8  <= 26.0418
 Statistics_Ineq._130__9___h(0MI_IDX1_3_8)___8___h(8)____9___log2(8.469665544614683)_|_9_|_MI_IDX1.MOVIE_ID: -8 _8 +9 _0MI_IDX1_3_8  <= 27.7407
 Statistics_Ineq._131__10___h(0MI_IDX1_3_8)___9___h(8)____10___log2(7.708718690783442)_|_10_|_MI_IDX1.MOVIE_ID: -9 _8 +10 _0MI_IDX1_3_8  <= 29.4649
 Statistics_Ineq._132__h(0MI_IDX1_3_8)___h(8)____log2(4.0)_|_inf_|_MI_IDX1.MOVIE_ID: -1 _8 +1 _0MI_IDX1_3_8  <= 2
 Statistics_Ineq._133__1___h(0MI_IDX1_3_8)___0___h(3)____1___log2(1380035.0)_|_1_|_MI_IDX1.INFO_TYPE_ID: +1 _0MI_IDX1_3_8  <= 20.3963
 Statistics_Ineq._134__2___h(0MI_IDX1_3_8)___1___h(3)____2___log2(796613.5069624416)_|_2_|_MI_IDX1.INFO_TYPE_ID: -1 _3 +2 _0MI_IDX1_3_8  <= 39.207
 Statistics_Ineq._135__3___h(0MI_IDX1_3_8)___2___h(3)____3___log2(663326.6336354722)_|_3_|_MI_IDX1.INFO_TYPE_ID: -2 _3 +3 _0MI_IDX1_3_8  <= 58.0181
 Statistics_Ineq._136__4___h(0MI_IDX1_3_8)___3___h(3)____4___log2(605295.3404071796)_|_4_|_MI_IDX1.INFO_TYPE_ID: -3 _3 +4 _0MI_IDX1_3_8  <= 76.8291
 Statistics_Ineq._137__5___h(0MI_IDX1_3_8)___4___h(3)____5___log2(572942.8024026672)_|_5_|_MI_IDX1.INFO_TYPE_ID: -4 _3 +5 _0MI_IDX1_3_8  <= 95.6402
 Statistics_Ineq._138__6___h(0MI_IDX1_3_8)___5___h(3)____6___log2(552340.9291093226)_|_6_|_MI_IDX1.INFO_TYPE_ID: -5 _3 +6 _0MI_IDX1_3_8  <= 114.451
 Statistics_Ineq._139__7___h(0MI_IDX1_3_8)___6___h(3)____7___log2(538080.4290580386)_|_7_|_MI_IDX1.INFO_TYPE_ID: -6 _3 +7 _0MI_IDX1_3_8  <= 133.262
 Statistics_Ineq._140__8___h(0MI_IDX1_3_8)___7___h(3)____8___log2(527627.1974005605)_|_8_|_MI_IDX1.INFO_TYPE_ID: -7 _3 +8 _0MI_IDX1_3_8  <= 152.073
 Statistics_Ineq._141__9___h(0MI_IDX1_3_8)___8___h(3)____9___log2(519637.5060761928)_|_9_|_MI_IDX1.INFO_TYPE_ID: -8 _3 +9 _0MI_IDX1_3_8  <= 170.884
 Statistics_Ineq._142__10___h(0MI_IDX1_3_8)___9___h(3)____10___log2(513332.9508175439)_|_10_|_MI_IDX1.INFO_TYPE_ID: -9 _3 +10 _0MI_IDX1_3_8  <= 189.695
 Statistics_Ineq._143__h(0MI_IDX1_3_8)___h(3)____log2(459925.0)_|_inf_|_MI_IDX1.INFO_TYPE_ID: -1 _3 +1 _0MI_IDX1_3_8  <= 18.811
 Statistics_Ineq._144__1___h(0MI_IDX2_4_9)___0___h(9)____1___log2(49412.0)_|_1_|_MI_IDX2.MOVIE_ID: +1 _0MI_IDX2_4_9  <= 15.5926
 Statistics_Ineq._145__2___h(0MI_IDX2_4_9)___1___h(9)____2___log2(386.36252406257)_|_2_|_MI_IDX2.MOVIE_ID: -1 _9 +2 _0MI_IDX2_4_9  <= 17.1876
 Statistics_Ineq._146__3___h(0MI_IDX2_4_9)___2___h(9)____3___log2(76.7436236289675)_|_3_|_MI_IDX2.MOVIE_ID: -2 _9 +3 _0MI_IDX2_4_9  <= 18.7859
 Statistics_Ineq._147__4___h(0MI_IDX2_4_9)___3___h(9)____4___log2(34.22837765164421)_|_4_|_MI_IDX2.MOVIE_ID: -3 _9 +4 _0MI_IDX2_4_9  <= 20.3885
 Statistics_Ineq._148__5___h(0MI_IDX2_4_9)___4___h(9)____5___log2(21.10211849780747)_|_5_|_MI_IDX2.MOVIE_ID: -4 _9 +5 _0MI_IDX2_4_9  <= 21.9966
 Statistics_Ineq._149__6___h(0MI_IDX2_4_9)___5___h(9)____6___log2(15.298342089510301)_|_6_|_MI_IDX2.MOVIE_ID: -5 _9 +6 _0MI_IDX2_4_9  <= 23.6118
 Statistics_Ineq._150__7___h(0MI_IDX2_4_9)___6___h(9)____7___log2(12.16926408208995)_|_7_|_MI_IDX2.MOVIE_ID: -6 _9 +7 _0MI_IDX2_4_9  <= 25.2362
 Statistics_Ineq._151__8___h(0MI_IDX2_4_9)___7___h(9)____8___log2(10.260359575004497)_|_8_|_MI_IDX2.MOVIE_ID: -7 _9 +8 _0MI_IDX2_4_9  <= 26.8721
 Statistics_Ineq._152__9___h(0MI_IDX2_4_9)___8___h(9)____9___log2(8.99509967448403)_|_9_|_MI_IDX2.MOVIE_ID: -8 _9 +9 _0MI_IDX2_4_9  <= 28.5223
 Statistics_Ineq._153__10___h(0MI_IDX2_4_9)___9___h(9)____10___log2(8.105956010110367)_|_10_|_MI_IDX2.MOVIE_ID: -9 _9 +10 _0MI_IDX2_4_9  <= 30.1898
 Statistics_Ineq._154__h(0MI_IDX2_4_9)___h(9)____log2(4.0)_|_inf_|_MI_IDX2.MOVIE_ID: -1 _9 +1 _0MI_IDX2_4_9  <= 2
 Statistics_Ineq._155__1___h(0MI_IDX2_4_9)___0___h(4)____1___log2(1380035.0)_|_1_|_MI_IDX2.INFO_TYPE_ID: +1 _0MI_IDX2_4_9  <= 20.3963
 Statistics_Ineq._156__2___h(0MI_IDX2_4_9)___1___h(4)____2___log2(796613.5069624416)_|_2_|_MI_IDX2.INFO_TYPE_ID: -1 _4 +2 _0MI_IDX2_4_9  <= 39.207
 Statistics_Ineq._157__3___h(0MI_IDX2_4_9)___2___h(4)____3___log2(663326.6336354722)_|_3_|_MI_IDX2.INFO_TYPE_ID: -2 _4 +3 _0MI_IDX2_4_9  <= 58.0181
 Statistics_Ineq._158__4___h(0MI_IDX2_4_9)___3___h(4)____4___log2(605295.3404071796)_|_4_|_MI_IDX2.INFO_TYPE_ID: -3 _4 +4 _0MI_IDX2_4_9  <= 76.8291
 Statistics_Ineq._159__5___h(0MI_IDX2_4_9)___4___h(4)____5___log2(572942.8024026672)_|_5_|_MI_IDX2.INFO_TYPE_ID: -4 _4 +5 _0MI_IDX2_4_9  <= 95.6402
 Statistics_Ineq._160__6___h(0MI_IDX2_4_9)___5___h(4)____6___log2(552340.9291093226)_|_6_|_MI_IDX2.INFO_TYPE_ID: -5 _4 +6 _0MI_IDX2_4_9  <= 114.451
 Statistics_Ineq._161__7___h(0MI_IDX2_4_9)___6___h(4)____7___log2(538080.4290580386)_|_7_|_MI_IDX2.INFO_TYPE_ID: -6 _4 +7 _0MI_IDX2_4_9  <= 133.262
 Statistics_Ineq._162__8___h(0MI_IDX2_4_9)___7___h(4)____8___log2(527627.1974005605)_|_8_|_MI_IDX2.INFO_TYPE_ID: -7 _4 +8 _0MI_IDX2_4_9  <= 152.073
 Statistics_Ineq._163__9___h(0MI_IDX2_4_9)___8___h(4)____9___log2(519637.5060761928)_|_9_|_MI_IDX2.INFO_TYPE_ID: -8 _4 +9 _0MI_IDX2_4_9  <= 170.884
 Statistics_Ineq._164__10___h(0MI_IDX2_4_9)___9___h(4)____10___log2(513332.9508175439)_|_10_|_MI_IDX2.INFO_TYPE_ID: -9 _4 +10 _0MI_IDX2_4_9  <= 189.695
 Statistics_Ineq._165__h(0MI_IDX2_4_9)___h(4)____log2(459925.0)_|_inf_|_MI_IDX2.INFO_TYPE_ID: -1 _4 +1 _0MI_IDX2_4_9  <= 18.811
 Statistics_Ineq._166__1___h(0ML_7_8_9)___0___h(8)____1___log2(29997.0)_|_1_|_ML.MOVIE_ID: +1 _0ML_7_8_9  <= 14.8725
 Statistics_Ineq._167__2___h(0ML_7_8_9)___1___h(8)____2___log2(1213.1327215107174)_|_2_|_ML.MOVIE_ID: -1 _8 +2 _0ML_7_8_9  <= 20.489
 Statistics_Ineq._168__3___h(0ML_7_8_9)___2___h(8)____3___log2(750.1502401240858)_|_3_|_ML.MOVIE_ID: -2 _8 +3 _0ML_7_8_9  <= 28.6531
 Statistics_Ineq._169__4___h(0ML_7_8_9)___3___h(8)____4___log2(664.2058945139274)_|_4_|_ML.MOVIE_ID: -3 _8 +4 _0ML_7_8_9  <= 37.5019
 Statistics_Ineq._170__5___h(0ML_7_8_9)___4___h(8)____5___log2(631.7613858973442)_|_5_|_ML.MOVIE_ID: -4 _8 +5 _0ML_7_8_9  <= 46.5162
 Statistics_Ineq._171__6___h(0ML_7_8_9)___5___h(8)____6___log2(614.8203730050602)_|_6_|_ML.MOVIE_ID: -5 _8 +6 _0ML_7_8_9  <= 55.5841
 Statistics_Ineq._172__7___h(0ML_7_8_9)___6___h(8)____7___log2(604.3057265104591)_|_7_|_ML.MOVIE_ID: -6 _8 +7 _0ML_7_8_9  <= 64.6739
 Statistics_Ineq._173__8___h(0ML_7_8_9)___7___h(8)____8___log2(597.0930053991272)_|_8_|_ML.MOVIE_ID: -7 _8 +8 _0ML_7_8_9  <= 73.7745
 Statistics_Ineq._174__9___h(0ML_7_8_9)___8___h(8)____9___log2(591.8294869471011)_|_9_|_ML.MOVIE_ID: -8 _8 +9 _0ML_7_8_9  <= 82.8813
 Statistics_Ineq._175__10___h(0ML_7_8_9)___9___h(8)____10___log2(587.8288234246537)_|_10_|_ML.MOVIE_ID: -9 _8 +10 _0ML_7_8_9  <= 91.9925
 Statistics_Ineq._176__h(0ML_7_8_9)___h(8)____log2(569.0)_|_inf_|_ML.MOVIE_ID: -1 _8 +1 _0ML_7_8_9  <= 9.15228
 Statistics_Ineq._177__1___h(0ML_7_8_9)___0___h(9)____1___log2(29997.0)_|_1_|_ML.LINKED_MOVIE_ID: +1 _0ML_7_8_9  <= 14.8725
 Statistics_Ineq._178__2___h(0ML_7_8_9)___1___h(9)____2___log2(436.67035621850954)_|_2_|_ML.LINKED_MOVIE_ID: -1 _9 +2 _0ML_7_8_9  <= 17.5408
 Statistics_Ineq._179__3___h(0ML_7_8_9)___2___h(9)____3___log2(179.40920499269947)_|_3_|_ML.LINKED_MOVIE_ID: -2 _9 +3 _0ML_7_8_9  <= 22.4613
 Statistics_Ineq._180__4___h(0ML_7_8_9)___3___h(9)____4___log2(143.90136544077282)_|_4_|_ML.LINKED_MOVIE_ID: -3 _9 +4 _0ML_7_8_9  <= 28.6757
 Statistics_Ineq._181__5___h(0ML_7_8_9)___4___h(9)____5___log2(135.4003350371657)_|_5_|_ML.LINKED_MOVIE_ID: -4 _9 +5 _0ML_7_8_9  <= 35.4054
 Statistics_Ineq._182__6___h(0ML_7_8_9)___5___h(9)____6___log2(132.73338716169695)_|_6_|_ML.LINKED_MOVIE_ID: -5 _9 +6 _0ML_7_8_9  <= 42.3143
 Statistics_Ineq._183__7___h(0ML_7_8_9)___6___h(9)____7___log2(131.74029994079464)_|_7_|_ML.LINKED_MOVIE_ID: -6 _9 +7 _0ML_7_8_9  <= 49.2909
 Statistics_Ineq._184__8___h(0ML_7_8_9)___7___h(9)____8___log2(131.33154793717202)_|_8_|_ML.LINKED_MOVIE_ID: -7 _9 +8 _0ML_7_8_9  <= 56.2966
 Statistics_Ineq._185__9___h(0ML_7_8_9)___8___h(9)____9___log2(131.15311280660916)_|_9_|_ML.LINKED_MOVIE_ID: -8 _9 +9 _0ML_7_8_9  <= 63.316
 Statistics_Ineq._186__10___h(0ML_7_8_9)___9___h(9)____10___log2(131.0722609905116)_|_10_|_ML.LINKED_MOVIE_ID: -9 _9 +10 _0ML_7_8_9  <= 70.3422
 Statistics_Ineq._187__h(0ML_7_8_9)___h(9)____log2(131.0)_|_inf_|_ML.LINKED_MOVIE_ID: -1 _9 +1 _0ML_7_8_9  <= 7.03342
 Statistics_Ineq._188__1___h(0ML_7_8_9)___0___h(7)____1___log2(29997.0)_|_1_|_ML.LINK_TYPE_ID: +1 _0ML_7_8_9  <= 14.8725
 Statistics_Ineq._189__2___h(0ML_7_8_9)___1___h(7)____2___log2(12292.900349388667)_|_2_|_ML.LINK_TYPE_ID: -1 _7 +2 _0ML_7_8_9  <= 27.1711
 Statistics_Ineq._190__3___h(0ML_7_8_9)___2___h(7)____3___log2(9975.940412766955)_|_3_|_ML.LINK_TYPE_ID: -2 _7 +3 _0ML_7_8_9  <= 39.8527
 Statistics_Ineq._191__4___h(0ML_7_8_9)___3___h(7)____4___log2(9226.180008352485)_|_4_|_ML.LINK_TYPE_ID: -3 _7 +4 _0ML_7_8_9  <= 52.6861
 Statistics_Ineq._192__5___h(0ML_7_8_9)___4___h(7)____5___log2(8909.028014886519)_|_5_|_ML.LINK_TYPE_ID: -4 _7 +5 _0ML_7_8_9  <= 65.6053
 Statistics_Ineq._193__6___h(0ML_7_8_9)___5___h(7)____6___log2(8758.238819262004)_|_6_|_ML.LINK_TYPE_ID: -5 _7 +6 _0ML_7_8_9  <= 78.5786
 Statistics_Ineq._194__7___h(0ML_7_8_9)___6___h(7)____7___log2(8681.96177837495)_|_7_|_ML.LINK_TYPE_ID: -6 _7 +7 _0ML_7_8_9  <= 91.5866
 Statistics_Ineq._195__8___h(0ML_7_8_9)___7___h(7)____8___log2(8641.889460301132)_|_8_|_ML.LINK_TYPE_ID: -7 _7 +8 _0ML_7_8_9  <= 104.617
 Statistics_Ineq._196__9___h(0ML_7_8_9)___8___h(7)____9___log2(8620.288819110365)_|_9_|_ML.LINK_TYPE_ID: -8 _7 +9 _0ML_7_8_9  <= 117.662
 Statistics_Ineq._197__10___h(0ML_7_8_9)___9___h(7)____10___log2(8608.422118955614)_|_10_|_ML.LINK_TYPE_ID: -9 _7 +10 _0ML_7_8_9  <= 130.715
 Statistics_Ineq._198__h(0ML_7_8_9)___h(7)____log2(8593.0)_|_inf_|_ML.LINK_TYPE_ID: -1 _7 +1 _0ML_7_8_9  <= 13.0689
 Statistics_Ineq._199__1___h(0T1_5_8)___0___h(5)____1___log2(2528312.0)_|_1_|_T1.KIND_ID: +1 _0T1_5_8  <= 21.2697
 Statistics_Ineq._200__2___h(0T1_5_8)___1___h(5)____2___log2(1689230.7620186177)_|_2_|_T1.KIND_ID: -1 _5 +2 _0T1_5_8  <= 41.3759
 Statistics_Ineq._201__3___h(0T1_5_8)___2___h(5)____3___log2(1583443.913864148)_|_3_|_T1.KIND_ID: -2 _5 +3 _0T1_5_8  <= 61.7839
 Statistics_Ineq._202__4___h(0T1_5_8)___3___h(5)____4___log2(1556252.4759197517)_|_4_|_T1.KIND_ID: -3 _5 +4 _0T1_5_8  <= 82.2786
 Statistics_Ineq._203__5___h(0T1_5_8)___4___h(5)____5___log2(1547750.1405598721)_|_5_|_T1.KIND_ID: -4 _5 +5 _0T1_5_8  <= 102.809
 Statistics_Ineq._204__6___h(0T1_5_8)___5___h(5)____6___log2(1544874.3860783328)_|_6_|_T1.KIND_ID: -5 _5 +6 _0T1_5_8  <= 123.354
 Statistics_Ineq._205__7___h(0T1_5_8)___6___h(5)____7___log2(1543857.6838300007)_|_7_|_T1.KIND_ID: -6 _5 +7 _0T1_5_8  <= 143.907
 Statistics_Ineq._206__8___h(0T1_5_8)___7___h(5)____8___log2(1543487.2544881583)_|_8_|_T1.KIND_ID: -7 _5 +8 _0T1_5_8  <= 164.462
 Statistics_Ineq._207__9___h(0T1_5_8)___8___h(5)____9___log2(1543349.256940834)_|_9_|_T1.KIND_ID: -8 _5 +9 _0T1_5_8  <= 185.019
 Statistics_Ineq._208__10___h(0T1_5_8)___9___h(5)____10___log2(1543296.959836952)_|_10_|_T1.KIND_ID: -9 _5 +10 _0T1_5_8  <= 205.576
 Statistics_Ineq._209__h(0T1_5_8)___h(5)____log2(1543264.0)_|_inf_|_T1.KIND_ID: -1 _5 +1 _0T1_5_8  <= 20.5576
 Statistics_Ineq._210__1___h(0T1_5_8)___0___h(8)____1___log2(8192.0)_|_1_|_T1.ID: +1 _0T1_5_8  <= 13
 Statistics_Ineq._211__2___h(0T1_5_8)___1___h(8)____2___log2(90.50966799187809)_|_2_|_T1.ID: -1 _8 +2 _0T1_5_8  <= 13
 Statistics_Ineq._212__3___h(0T1_5_8)___2___h(8)____3___log2(20.158736798317967)_|_3_|_T1.ID: -2 _8 +3 _0T1_5_8  <= 13
 Statistics_Ineq._213__4___h(0T1_5_8)___3___h(8)____4___log2(9.513656920021768)_|_4_|_T1.ID: -3 _8 +4 _0T1_5_8  <= 13
 Statistics_Ineq._214__5___h(0T1_5_8)___4___h(8)____5___log2(6.062866266041593)_|_5_|_T1.ID: -4 _8 +5 _0T1_5_8  <= 13
 Statistics_Ineq._215__6___h(0T1_5_8)___5___h(8)____6___log2(4.489848193237491)_|_6_|_T1.ID: -5 _8 +6 _0T1_5_8  <= 13
 Statistics_Ineq._216__7___h(0T1_5_8)___6___h(8)____7___log2(3.6228946570556264)_|_7_|_T1.ID: -6 _8 +7 _0T1_5_8  <= 13
 Statistics_Ineq._217__8___h(0T1_5_8)___7___h(8)____8___log2(3.0844216508158815)_|_8_|_T1.ID: -7 _8 +8 _0T1_5_8  <= 13
 Statistics_Ineq._218__9___h(0T1_5_8)___8___h(8)____9___log2(2.721580000348754)_|_9_|_T1.ID: -8 _8 +9 _0T1_5_8  <= 13
 Statistics_Ineq._219__10___h(0T1_5_8)___9___h(8)____10___log2(2.4622888266898326)_|_10_|_T1.ID: -9 _8 +10 _0T1_5_8  <= 13
 Statistics_Ineq._220__h(0T1_5_8)___h(8)____log2(1.0)_|_inf_|_T1.ID: -1 _8 +1 _0T1_5_8  <= 0
 Statistics_Ineq._221__1___h(0T2_6_9)___0___h(6)____1___log2(2528312.0)_|_1_|_T2.KIND_ID: +1 _0T2_6_9  <= 21.2697
 Statistics_Ineq._222__2___h(0T2_6_9)___1___h(6)____2___log2(1689230.7620186177)_|_2_|_T2.KIND_ID: -1 _6 +2 _0T2_6_9  <= 41.3759
 Statistics_Ineq._223__3___h(0T2_6_9)___2___h(6)____3___log2(1583443.913864148)_|_3_|_T2.KIND_ID: -2 _6 +3 _0T2_6_9  <= 61.7839
 Statistics_Ineq._224__4___h(0T2_6_9)___3___h(6)____4___log2(1556252.4759197517)_|_4_|_T2.KIND_ID: -3 _6 +4 _0T2_6_9  <= 82.2786
 Statistics_Ineq._225__5___h(0T2_6_9)___4___h(6)____5___log2(1547750.1405598721)_|_5_|_T2.KIND_ID: -4 _6 +5 _0T2_6_9  <= 102.809
 Statistics_Ineq._226__6___h(0T2_6_9)___5___h(6)____6___log2(1544874.3860783328)_|_6_|_T2.KIND_ID: -5 _6 +6 _0T2_6_9  <= 123.354
 Statistics_Ineq._227__7___h(0T2_6_9)___6___h(6)____7___log2(1543857.6838300007)_|_7_|_T2.KIND_ID: -6 _6 +7 _0T2_6_9  <= 143.907
 Statistics_Ineq._228__8___h(0T2_6_9)___7___h(6)____8___log2(1543487.2544881583)_|_8_|_T2.KIND_ID: -7 _6 +8 _0T2_6_9  <= 164.462
 Statistics_Ineq._229__9___h(0T2_6_9)___8___h(6)____9___log2(1543349.256940834)_|_9_|_T2.KIND_ID: -8 _6 +9 _0T2_6_9  <= 185.019
 Statistics_Ineq._230__10___h(0T2_6_9)___9___h(6)____10___log2(1543296.959836952)_|_10_|_T2.KIND_ID: -9 _6 +10 _0T2_6_9  <= 205.576
 Statistics_Ineq._231__h(0T2_6_9)___h(6)____log2(1543264.0)_|_inf_|_T2.KIND_ID: -1 _6 +1 _0T2_6_9  <= 20.5576
 Statistics_Ineq._232__1___h(0T2_6_9)___0___h(9)____1___log2(16384.0)_|_1_|_T2.ID: +1 _0T2_6_9  <= 14
 Statistics_Ineq._233__2___h(0T2_6_9)___1___h(9)____2___log2(128.0)_|_2_|_T2.ID: -1 _9 +2 _0T2_6_9  <= 14
 Statistics_Ineq._234__3___h(0T2_6_9)___2___h(9)____3___log2(25.398416831491186)_|_3_|_T2.ID: -2 _9 +3 _0T2_6_9  <= 14
 Statistics_Ineq._235__4___h(0T2_6_9)___3___h(9)____4___log2(11.313708498984761)_|_4_|_T2.ID: -3 _9 +4 _0T2_6_9  <= 14
 Statistics_Ineq._236__5___h(0T2_6_9)___4___h(9)____5___log2(6.964404506368994)_|_5_|_T2.ID: -4 _9 +5 _0T2_6_9  <= 14
 Statistics_Ineq._237__6___h(0T2_6_9)___5___h(9)____6___log2(5.039684199579492)_|_6_|_T2.ID: -5 _9 +6 _0T2_6_9  <= 14
 Statistics_Ineq._238__7___h(0T2_6_9)___6___h(9)____7___log2(3.9999999999999996)_|_7_|_T2.ID: -6 _9 +7 _0T2_6_9  <= 14
 Statistics_Ineq._239__8___h(0T2_6_9)___7___h(9)____8___log2(3.363585661014858)_|_8_|_T2.ID: -7 _9 +8 _0T2_6_9  <= 14
 Statistics_Ineq._240__9___h(0T2_6_9)___8___h(9)____9___log2(2.9394689845511977)_|_9_|_T2.ID: -8 _9 +9 _0T2_6_9  <= 14
 Statistics_Ineq._241__10___h(0T2_6_9)___9___h(9)____10___log2(2.639015821545789)_|_10_|_T2.ID: -9 _9 +10 _0T2_6_9  <= 14
 Statistics_Ineq._242__h(0T2_6_9)___h(9)____log2(1.0)_|_inf_|_T2.ID: -1 _9 +1 _0T2_6_9  <= 0
Bounds
 0 <= _1
 0 <= _2
 0 <= _3
 0 <= _4
 0 <= _5
 0 <= _6
 0 <= _7
 0 <= _8
 0 <= _9
 0 <= _0CN1
 0 <= _0CN1_1
 0 <= _0CN2
 0 <= _0CN2_2
 0 <= _0IT1
 0 <= _0IT1_3
 0 <= _0IT2
 0 <= _0IT2_4
 0 <= _0KT1
 0 <= _0KT1_5
 0 <= _0KT2
 0 <= _0KT2_6
 0 <= _0LT
 0 <= _0LT_7
 0 <= _0MC1
 0 <= _0MC1_1_8
 0 <= _0MC2
 0 <= _0MC2_2_9
 0 <= _0MI_IDX1
 0 <= _0MI_IDX1_3_8
 0 <= _0MI_IDX2
 0 <= _0MI_IDX2_4_9
 0 <= _0ML
 0 <= _0ML_7_8_9
 0 <= _0T1
 0 <= _0T1_5_8
 0 <= _0T2
 0 <= _0T2_6_9
End
